(set-logic SLHV)
(declare-hvar emp IntHeap)
(declare-locvar nil IntLoc)
(declare-datatype pt_record_0 ((Pt_R_0 (loc IntLoc))))
(declare-datatype pt_record_1 ((Pt_R_1 (data Int))))
(declare-const d22 Int)
(declare-locvar l40 IntLoc)
(declare-hvar ah6 IntHeap)
(declare-hvar AH_0 IntHeap)
(declare-const d21 Int)
(declare-locvar l38 IntLoc)
(declare-hvar h28 IntHeap)
(declare-hvar H_0 IntHeap)
(declare-locvar l39 IntLoc)
(declare-const loc_0 Int)
(assert
 (let (($x716 (or (= H_0 (uplus h28 (pt l38 (Pt_R_0 l39)))) (= H_0 (uplus h28 (pt l38 (Pt_R_1 d21)))))))
 (let (($x739 (and (and false $x716) (= AH_0 (uplus ah6 (pt l40 (Pt_R_1 d22)))))))
 (let (($x699 (= loc_0 5)))
 (let (($x703 (and (and (= H_0 emp) (= AH_0 emp)) $x699)))
 (and $x703 $x739))))))
(check-sat)
